WARNING: for repeatability, setting FPU to use double precision
============================[ Problem Statistics ]=============================
|                                                                             |
|  Number of variables:          1002                                         |
|  Number of clauses:           38763                                         |
|  Parse time:                   0.00 s                                       |
|                                                                             |
c ============================[ Search Statistics ]==============================
c | Conflicts |          ORIGINAL         |          LEARNT          | Progress |
c |           |    Vars  Clauses Literals |    Limit  Clauses Lit/Cl |          |
c ===============================================================================
c Switched to VSIDS.
c Switched to LRB.
c Switched to VSIDS.
c Switched to LRB.
c Switched to VSIDS.
c Switched to LRB.
c Switched to VSIDS.
c Switched to LRB.
c Switched to VSIDS.
c Switched to LRB.
c Switched to VSIDS.
c Switched to LRB.
c Switched to VSIDS.
c Switched to LRB.
c Switched to VSIDS.
c Switched to LRB.
c Switched to VSIDS.
c Switched to LRB.
c Switched to VSIDS.
c Switched to LRB.
c Switched to VSIDS.
c Switched to LRB.
c Switched to VSIDS.
c Switched to LRB.
c Switched to VSIDS.
c Switched to LRB.
c Switched to VSIDS.
c Switched to LRB.
c ===============================================================================
restarts                  : 27204
conflicts                 : 15935052       (4502 /sec)
decisions                 : 20954165       (0.00 % random) (5920 /sec)
propagations              : 4435506927     (1253184 /sec)
conflict literals         : 1137604915     (38.04 % deleted)

conflicts w/ DIP found    : 9485550        (59.53 % of conflicts)
conflicts w/ dangerous DIP: 0              (0.00 % of conflicts)
conflicts w/ DIP-learning : 82460          (0.52 % of conflicts)
decisions on ext vars     : 1203           (0.01 % of decisions)
total ext vars            : 7085        
tried delete ext vars     : 0           
deleted ext vars          : 0           
max ext vars              : 7085        

Memory used               : 234.00 MB
CPU time                  : 3539.39 s
DIP computation time      : 90.0813 s (2.55 % of total time)
ER_sel time               : 17.9845 s
ER_add time               : 0.024594 s
ER_delC time              : 0 s
ER_delV time              : 0 s
ER_sub time               : 20.8716 s
ER_stat time              : 0 s

INDETERMINATE
